(set-info :status unknown)
(declare-const symbol_17 (_ BitVec 32))
(declare-const symbol_10 (_ BitVec 32))
(declare-const symbol_4 (_ BitVec 32))
(declare-const symbol_15 (_ BitVec 32))
(declare-const symbol_0 (_ BitVec 32))
(declare-const symbol_9 (_ BitVec 32))
(declare-const symbol_16 (_ BitVec 32))
(declare-const symbol_11 (_ BitVec 32))
(declare-const symbol_3 (_ BitVec 32))
(declare-const symbol_14 (_ BitVec 32))
(declare-const symbol_1 (_ BitVec 32))
(declare-const symbol_6 (_ BitVec 32))
(declare-const symbol_2 (_ BitVec 32))
(declare-const symbol_13 (_ BitVec 32))
(declare-const symbol_7 (_ BitVec 32))
(declare-const symbol_12 (_ BitVec 32))
(declare-const symbol_8 (_ BitVec 32))
(declare-const symbol_5 (_ BitVec 32))
(assert (not (bvslt symbol_17 symbol_1)))
(assert (not (bvslt symbol_16 symbol_1)))
(assert (not (bvslt symbol_15 symbol_1)))
(assert (not (bvslt symbol_14 symbol_1)))
(assert (not (bvslt symbol_13 symbol_1)))
(assert (not (bvslt symbol_12 symbol_1)))
(assert (not (bvslt symbol_11 symbol_1)))
(assert (not (bvslt symbol_10 symbol_1)))
(assert (not (bvslt symbol_9 symbol_1)))
(assert (not (bvslt symbol_8 symbol_1)))
(assert (not (bvslt symbol_7 symbol_1)))
(assert (not (bvslt symbol_6 symbol_1)))
(assert (not (bvslt symbol_5 symbol_1)))
(assert (not (bvslt symbol_4 symbol_1)))
(assert (not (bvslt symbol_3 symbol_1)))
(assert (not (bvslt symbol_2 symbol_1)))
(assert (bvslt symbol_1 symbol_0))
(check-sat)